NAME : PR75A.130531.tour
COMMENT : Cost = 0_130531
COMMENT : Found by LKH [Keld Helsgaun] Sun Sep 17 16:52:40 2017
TYPE : TOUR
DIMENSION : 75
TOUR_SECTION
1
2
3
6
7
8
73
15
16
37
36
38
39
41
58
62
63
70
71
72
64
51
50
52
53
54
42
43
27
26
28
33
32
29
30
31
19
20
22
24
46
45
44
48
47
68
67
69
66
49
65
56
55
57
61
59
60
40
34
35
18
17
11
13
14
12
10
9
5
4
25
21
23
75
74
-1
EOF
